% demand
num_movements = 24;
loading_factor = [950, 1600, 1500, 850, 1050, 1000, 1900, 1400, 1450, 1450, 950, 1000, 900, 1100, 950, 2000, 1050, 950, 850, 1300, 1450, 1550, 1850, 1550];
pickup_time = [0, 0, 0, 0, 0, 0, 1, 1, 1, 3, 3, 4, 4, 4, 4, 6, 6, 6, 8, 8, 9, 9, 9, 10];
delivery_time = [1, 4, 1, 1, 1, 1, 3, 3, 4, 4, 9, 5, 6, 7, 8, 9, 7, 7, 9, 9, 12, 12, 12, 11];

% transporter definition
total_capacity = 7000;
num_decks = 3;
capacity = [3000, 1000, 3000];

% ways out of decks
num_ways_out = 1;
paths_out = array3d(decks, ways_out, decks, [
% ways out of deck d1
2, 3, 0, 

% ways out of deck d2
3, 0, 0, 

% ways out of deck d3
0, 0, 0,	

]);

